NAME          
ROWS
 N  OBJ
 L  c1
COLUMNS
    MARKER    'MARKER'                 'INTORG'
    x[1]      c1        185
    x[1]      OBJ       -208
    x[2]      c1        279
    x[2]      OBJ       -199
    x[3]      c1        966
    x[3]      OBJ       -995
    x[4]      c1        277
    x[4]      OBJ       -190
    x[5]      c1        226
    x[5]      OBJ       -175
    x[6]      c1        486
    x[6]      OBJ       -480
    x[7]      c1        517
    x[7]      OBJ       -514
    x[8]      c1        -15
    x[8]      OBJ       -14
    x[9]      c1        747
    x[9]      OBJ       -675
    x[10]     c1        134
    x[10]     OBJ       -87
    x[11]     c1        188
    x[11]     OBJ       -209
    x[12]     c1        530
    x[12]     OBJ       -484
    x[13]     c1        169
    x[13]     OBJ       -145
    x[14]     c1        247
    x[14]     OBJ       -289
    x[15]     c1        361
    x[15]     OBJ       -371
    x[16]     c1        343
    x[16]     OBJ       -388
    x[17]     c1        297
    x[17]     OBJ       -372
    x[18]     c1        901
    x[18]     OBJ       -998
    x[19]     c1        110
    x[19]     OBJ       -13
    x[20]     c1        401
    x[20]     OBJ       -308
    x[21]     c1        248
    x[21]     OBJ       -265
    x[22]     c1        819
    x[22]     OBJ       -918
    x[23]     c1        607
    x[23]     OBJ       -529
    x[24]     c1        887
    x[24]     OBJ       -925
    x[25]     c1        301
    x[25]     OBJ       -307
    x[26]     c1        884
    x[26]     OBJ       -818
    x[27]     c1        756
    x[27]     OBJ       -826
    x[28]     c1        742
    x[28]     OBJ       -646
    x[29]     c1        836
    x[29]     OBJ       -811
    x[30]     c1        419
    x[30]     OBJ       -361
    x[31]     c1        66
    x[31]     OBJ       -93
    x[32]     c1        1010
    x[32]     OBJ       -931
    x[33]     c1        75
    x[33]     OBJ       -102
    x[34]     c1        269
    x[34]     OBJ       -333
    x[35]     c1        335
    x[35]     OBJ       -241
    x[36]     c1        425
    x[36]     OBJ       -396
    x[37]     c1        977
    x[37]     OBJ       -906
    x[38]     c1        361
    x[38]     OBJ       -279
    x[39]     c1        987
    x[39]     OBJ       -957
    x[40]     c1        820
    x[40]     OBJ       -760
    x[41]     c1        247
    x[41]     OBJ       -174
    x[42]     c1        682
    x[42]     OBJ       -702
    x[43]     c1        169
    x[43]     OBJ       -237
    x[44]     c1        834
    x[44]     OBJ       -894
    x[45]     c1        967
    x[45]     OBJ       -886
    x[46]     c1        77
    x[46]     OBJ       -72
    x[47]     c1        632
    x[47]     OBJ       -558
    x[48]     c1        379
    x[48]     OBJ       -318
    x[49]     c1        719
    x[49]     OBJ       -677
    x[50]     c1        221
    x[50]     OBJ       -220
    x[51]     c1        411
    x[51]     OBJ       -416
    x[52]     c1        450
    x[52]     OBJ       -524
    x[53]     c1        123
    x[53]     OBJ       -173
    x[54]     c1        129
    x[54]     OBJ       -46
    x[55]     c1        425
    x[55]     OBJ       -394
    x[56]     c1        320
    x[56]     OBJ       -240
    x[57]     c1        388
    x[57]     OBJ       -474
    x[58]     c1        244
    x[58]     OBJ       -286
    x[59]     c1        733
    x[59]     OBJ       -656
    x[60]     c1        144
    x[60]     OBJ       -136
    x[61]     c1        236
    x[61]     OBJ       -248
    x[62]     c1        471
    x[62]     OBJ       -507
    x[63]     c1        615
    x[63]     OBJ       -545
    x[64]     c1        793
    x[64]     OBJ       -824
    x[65]     c1        229
    x[65]     OBJ       -326
    x[66]     c1        814
    x[66]     OBJ       -746
    x[67]     c1        571
    x[67]     OBJ       -641
    x[68]     c1        854
    x[68]     OBJ       -812
    x[69]     c1        659
    x[69]     OBJ       -614
    x[70]     c1        175
    x[70]     OBJ       -256
    x[71]     c1        511
    x[71]     OBJ       -545
    x[72]     c1        545
    x[72]     OBJ       -639
    x[73]     c1        392
    x[73]     OBJ       -380
    x[74]     c1        714
    x[74]     OBJ       -734
    x[75]     c1        876
    x[75]     OBJ       -876
RHS
    rhs       c1        17961
RANGES
BOUNDS
 LO bounds    x[1]      0
 PL bounds    x[1]
 LO bounds    x[2]      0
 PL bounds    x[2]
 LO bounds    x[3]      0
 PL bounds    x[3]
 LO bounds    x[4]      0
 PL bounds    x[4]
 LO bounds    x[5]      0
 PL bounds    x[5]
 LO bounds    x[6]      0
 PL bounds    x[6]
 LO bounds    x[7]      0
 PL bounds    x[7]
 LO bounds    x[8]      0
 PL bounds    x[8]
 LO bounds    x[9]      0
 PL bounds    x[9]
 LO bounds    x[10]     0
 PL bounds    x[10]
 LO bounds    x[11]     0
 PL bounds    x[11]
 LO bounds    x[12]     0
 PL bounds    x[12]
 LO bounds    x[13]     0
 PL bounds    x[13]
 LO bounds    x[14]     0
 PL bounds    x[14]
 LO bounds    x[15]     0
 PL bounds    x[15]
 LO bounds    x[16]     0
 PL bounds    x[16]
 LO bounds    x[17]     0
 PL bounds    x[17]
 LO bounds    x[18]     0
 PL bounds    x[18]
 LO bounds    x[19]     0
 PL bounds    x[19]
 LO bounds    x[20]     0
 PL bounds    x[20]
 LO bounds    x[21]     0
 PL bounds    x[21]
 LO bounds    x[22]     0
 PL bounds    x[22]
 LO bounds    x[23]     0
 PL bounds    x[23]
 LO bounds    x[24]     0
 PL bounds    x[24]
 LO bounds    x[25]     0
 PL bounds    x[25]
 LO bounds    x[26]     0
 PL bounds    x[26]
 LO bounds    x[27]     0
 PL bounds    x[27]
 LO bounds    x[28]     0
 PL bounds    x[28]
 LO bounds    x[29]     0
 PL bounds    x[29]
 LO bounds    x[30]     0
 PL bounds    x[30]
 LO bounds    x[31]     0
 PL bounds    x[31]
 LO bounds    x[32]     0
 PL bounds    x[32]
 LO bounds    x[33]     0
 PL bounds    x[33]
 LO bounds    x[34]     0
 PL bounds    x[34]
 LO bounds    x[35]     0
 PL bounds    x[35]
 LO bounds    x[36]     0
 PL bounds    x[36]
 LO bounds    x[37]     0
 PL bounds    x[37]
 LO bounds    x[38]     0
 PL bounds    x[38]
 LO bounds    x[39]     0
 PL bounds    x[39]
 LO bounds    x[40]     0
 PL bounds    x[40]
 LO bounds    x[41]     0
 PL bounds    x[41]
 LO bounds    x[42]     0
 PL bounds    x[42]
 LO bounds    x[43]     0
 PL bounds    x[43]
 LO bounds    x[44]     0
 PL bounds    x[44]
 LO bounds    x[45]     0
 PL bounds    x[45]
 LO bounds    x[46]     0
 PL bounds    x[46]
 LO bounds    x[47]     0
 PL bounds    x[47]
 LO bounds    x[48]     0
 PL bounds    x[48]
 LO bounds    x[49]     0
 PL bounds    x[49]
 LO bounds    x[50]     0
 PL bounds    x[50]
 LO bounds    x[51]     0
 PL bounds    x[51]
 LO bounds    x[52]     0
 PL bounds    x[52]
 LO bounds    x[53]     0
 PL bounds    x[53]
 LO bounds    x[54]     0
 PL bounds    x[54]
 LO bounds    x[55]     0
 PL bounds    x[55]
 LO bounds    x[56]     0
 PL bounds    x[56]
 LO bounds    x[57]     0
 PL bounds    x[57]
 LO bounds    x[58]     0
 PL bounds    x[58]
 LO bounds    x[59]     0
 PL bounds    x[59]
 LO bounds    x[60]     0
 PL bounds    x[60]
 LO bounds    x[61]     0
 PL bounds    x[61]
 LO bounds    x[62]     0
 PL bounds    x[62]
 LO bounds    x[63]     0
 PL bounds    x[63]
 LO bounds    x[64]     0
 PL bounds    x[64]
 LO bounds    x[65]     0
 PL bounds    x[65]
 LO bounds    x[66]     0
 PL bounds    x[66]
 LO bounds    x[67]     0
 PL bounds    x[67]
 LO bounds    x[68]     0
 PL bounds    x[68]
 LO bounds    x[69]     0
 PL bounds    x[69]
 LO bounds    x[70]     0
 PL bounds    x[70]
 LO bounds    x[71]     0
 PL bounds    x[71]
 LO bounds    x[72]     0
 PL bounds    x[72]
 LO bounds    x[73]     0
 PL bounds    x[73]
 LO bounds    x[74]     0
 PL bounds    x[74]
 LO bounds    x[75]     0
 PL bounds    x[75]
ENDATA
